NAME: SCAIL119_2133_05
COMMENT: Generated as the SCAIL100 dataset for the MIM2025 SCLDC Challenge
TYPE: Multi-Depot CVRP
DEPOTS: 2
DIMENSION: 121
EDGE_WEIGHT_TYPE: EUC_2D
CAPACITY: 69

NODE_COORD_SECTION 
1    861  757 
2    367  814 
3    577  972 
4    110  603 
5    9    463 
6    135  1   
7    33   820 
8    305  22  
9    984  203 
10   296  321 
11   369  424 
12   165  737 
13   505  342 
14   889  252 
15   363  914 
16   806  428 
17   817  80  
18   998  961 
19   615  546 
20   963  991 
21   838  313 
22   748  221 
23   694  640 
24   417  286 
25   951  839 
26   918  806 
27   149  270 
28   816  376 
29   49   82  
30   983  169 
31   186  938 
32   792  220 
33   944  635 
34   209  186 
35   423  109 
36   316  495 
37   135  645 
38   323  189 
39   492  483 
40   213  348 
41   860  476 
42   542  29  
43   47   724 
44   73   142 
45   721  180 
46   352  524 
47   978  977 
48   104  587 
49   371  940 
50   313  181 
51   525  625 
52   149  57  
53   865  413 
54   938  653 
55   352  846 
56   492  713 
57   256  466 
58   374  385 
59   794  965 
60   964  473 
61   255  13  
62   317  363 
63   872  173 
64   537  256 
65   169  958 
66   694  724 
67   758  608 
68   172  444 
69   995  892 
70   945  415 
71   893  170 
72   888  784 
73   667  944 
74   767  366 
75   858  212 
76   255  664 
77   18   562 
78   632  632 
79   738  705 
80   94   319 
81   707  201 
82   968  93  
83   702  324 
84   346  67  
85   766  799 
86   23   972 
87   455  129 
88   381  152 
89   37   443 
90   201  121 
91   880  302 
92   666  431 
93   430  301 
94   794  473 
95   151  348 
96   719  558 
97   773  251 
98   144  464 
99   5    214 
100  160  115 
101  53   922 
102  398  163 
103  3    610 
104  58   262 
105  32   243 
106  308  837 
107  185  638 
108  915  392 
109  282  946 
110  592  861 
111  989  988 
112  66   339 
113  617  600 
114  641  152 
115  380  480 
116  999  534 
117  389  556 
118  133  749 
119  552  897 
120  780  816 
121  60   865 

DEMAND_SECTION
1    0   
2    0   
3    9   
4    7   
5    10  
6    7   
7    5   
8    6   
9    7   
10   8   
11   9   
12   7   
13   8   
14   6   
15   8   
16   8   
17   6   
18   9   
19   7   
20   8   
21   7   
22   6   
23   8   
24   8   
25   8   
26   6   
27   9   
28   5   
29   8   
30   9   
31   7   
32   9   
33   7   
34   5   
35   9   
36   10  
37   7   
38   7   
39   5   
40   7   
41   9   
42   6   
43   8   
44   8   
45   5   
46   8   
47   8   
48   7   
49   7   
50   5   
51   6   
52   10  
53   8   
54   9   
55   7   
56   10  
57   9   
58   8   
59   9   
60   10  
61   5   
62   9   
63   6   
64   7   
65   10  
66   9   
67   8   
68   8   
69   10  
70   6   
71   6   
72   6   
73   6   
74   7   
75   9   
76   5   
77   7   
78   10  
79   7   
80   7   
81   10  
82   8   
83   7   
84   5   
85   9   
86   7   
87   8   
88   10  
89   9   
90   8   
91   8   
92   9   
93   9   
94   5   
95   8   
96   9   
97   9   
98   7   
99   5   
100  5   
101  5   
102  9   
103  10  
104  7   
105  10  
106  9   
107  7   
108  8   
109  9   
110  10  
111  10  
112  9   
113  7   
114  5   
115  10  
116  9   
117  5   
118  6   
119  8   
120  7   
121  5   

DEPOT_SECTION
1    861  757 
2    367  814 
-1
EOF
